NAME: I7326-n25-k5
COMMENT : (Fake et al, No of trucks: 5, Optimal value: )
TYPE : CVRP
DIMENSION : 25
EDGE_WEIGHT_TYPE : EUC_2D
CAPACITY : 11
NODE_COORD_SECTION
1 703 707
2 673 512
3 326 807
4 398 527
5 747 777
6 727 595
7 896 875
8 749 521
9 352 107
10 844 11
11 15 908
12 440 45
13 560 622
14 307 602
15 468 742
16 260 703
17 474 633
18 465 912
19 632 237
20 636 384
21 76 548
22 694 714
23 806 989
24 481 151
25 238 196
DEMAND_SECTION
1 0
2 2
3 2
4 2
5 3
6 2
7 1
8 1
9 2
10 2
11 1
12 1
13 2
14 1
15 1
16 3
17 2
18 1
19 3
20 1
21 2
22 3
23 1
24 2
25 3
DEPOT_SECTION
 1
 -1
 EOF 